0 0 0 0
0 1 0 0
0 2 2 0
0 3 0 0
0 4 0 8
0 5 0 5
0 6 0 9
0 7 1 8
0 8 0 22
0 9 0 2
0 10 0 10
0 11 2 6
0 12 2 17
0 13 1 6
0 14 0 9
0 15 0 9
0 16 0 13
0 17 1 11
0 18 0 23
0 19 2 28
0 20 0 17
0 21 0 22
0 22 2 25
0 23 2 27
0 24 2 15
0 25 0 25
0 26 0 34
0 27 2 29
0 28 2 33
0 29 2 34
0 30 0 39
0 31 0 41
